1 31 2
-340 -960 -1000 -93 -699 -497 -952 -797 -797 -504 -317 -916 -310 -257 -934 -353 -468 -275 -549 -329 -28 -206 -332 -597 -779 -378 -900 -338 -602 -847 0 
-691 -114 -99 -844 -258 -441 -145 -204 -113 -463 -660 -130 -650 -769 -7 -613 -560 -633 -502 -771 -985 -808 -733 -432 -193 -685 -62 -573 -451 -230 0 
1084 982 1222 910 862 1028 928 910 1072 791 1006 888 998 984 1101 872 1161 963 908 1055 1150 1035 1191 1052 1136 1009 802 894 1153 891 1 
15019 
